p cnf 125 500
1 -125 -76 0
1 -125 23 0
1 -125 38 0
1 -125 54 0
1 -124 -52 0
1 -124 10 0
1 -124 89 0
1 -124 106 0
1 -123 -97 0
1 -123 -61 0
1 -123 43 0
1 -123 103 0
1 -122 -92 0
1 -122 26 0
1 -122 43 0
1 -122 112 0
1 -121 21 0
1 -121 26 0
1 -121 93 0
1 -121 102 0
1 -120 -114 0
1 -120 -2 0
1 -120 46 0
1 -120 90 0
1 -119 -118 0
1 -119 -32 0
1 -119 -29 0
1 -119 71 0
1 -118 -112 0
1 -118 -9 0
1 -118 -7 0
1 -117 -102 0
1 -117 -20 0
1 -117 30 0
1 -117 95 0
1 -116 -75 0
1 -116 -18 0
1 -116 7 0
1 -116 43 0
1 -115 -110 0
1 -115 13 0
1 -115 51 0
1 -115 68 0
1 -114 63 0
1 -114 84 0
1 -114 100 0
1 -113 -111 0
1 -113 -51 0
1 -113 45 0
1 -113 123 0
1 -112 -76 0
1 -112 -52 0
1 -112 8 0
1 -111 -102 0
1 -111 -3 0
1 -111 97 0
1 -110 14 0
1 -110 53 0
1 -110 121 0
1 -109 -39 0
1 -109 48 0
1 -109 66 0
1 -109 120 0
1 -108 79 0
1 -108 96 0
1 -108 119 0
1 -108 125 0
1 -107 -68 0
1 -107 -65 0
1 -107 -38 0
1 -107 125 0
1 -106 -54 0
1 -106 79 0
1 -106 114 0
1 -106 119 0
1 -105 24 0
1 -105 58 0
1 -105 76 0
1 -105 116 0
1 -104 -98 0
1 -104 -73 0
1 -104 44 0
1 -104 74 0
1 -103 -84 0
1 -103 -42 0
1 -103 -14 0
1 -103 4 0
1 -102 -36 0
1 -102 -13 0
1 -101 -78 0
1 -101 24 0
1 -101 124 0
1 -101 125 0
1 -100 -77 0
1 -100 -45 0
1 -100 -27 0
1 -100 47 0
1 -99 19 0
1 -99 52 0
1 -99 89 0
1 -99 93 0
1 -98 46 0
1 -98 56 0
1 -98 102 0
1 -97 69 0
1 -97 77 0
1 -97 108 0
1 -96 -9 0
1 -96 6 0
1 -96 31 0
1 -96 66 0
1 -95 -69 0
1 -95 -29 0
1 -95 80 0
1 -95 102 0
1 -94 -16 0
1 -94 71 0
1 -94 81 0
1 -94 103 0
1 -93 -33 0
1 -93 -31 0
1 -93 -6 0
1 -93 11 0
1 -92 -74 0
1 -92 26 0
1 -92 68 0
1 -91 -59 0
1 -91 -27 0
1 -91 -26 0
1 -91 -10 0
1 -90 -89 0
1 -90 -24 0
1 -90 6 0
1 -90 29 0
1 -89 -81 0
1 -89 -53 0
1 -89 -30 0
1 -88 -87 0
1 -88 -40 0
1 -88 -16 0
1 -88 20 0
1 -87 -23 0
1 -87 -8 0
1 -87 29 0
1 -86 -2 0
1 -86 64 0
1 -86 72 0
1 -86 96 0
1 -85 -55 0
1 -85 -50 0
1 -85 -11 0
1 -85 33 0
1 -84 50 0
1 -84 120 0
1 -84 123 0
1 -83 -45 0
1 -83 9 0
1 -83 33 0
1 -83 95 0
1 -82 -36 0
1 -82 34 0
1 -82 74 0
1 -82 119 0
1 -81 -43 0
1 -81 15 0
1 -81 27 0
1 -80 -48 0
1 -80 97 0
1 -80 105 0
1 -80 123 0
1 -79 -58 0
1 -79 -19 0
1 -79 -7 0
1 -79 49 0
1 -78 -22 0
1 -78 57 0
1 -78 82 0
1 -77 -5 0
1 -77 5 0
1 -77 114 0
1 -76 -60 0
1 -76 -19 0
1 -75 13 0
1 -75 31 0
1 -75 111 0
1 -74 4 0
1 -74 37 0
1 -74 53 0
1 -73 15 0
1 -73 79 0
1 -73 91 0
1 -72 38 0
1 -72 58 0
1 -72 81 0
1 -72 97 0
1 -71 40 0
1 -71 94 0
1 -71 108 0
1 -71 124 0
1 -70 -22 0
1 -70 9 0
1 -70 62 0
1 -70 75 0
1 -69 17 0
1 -69 78 0
1 -69 102 0
1 -68 -18 0
1 -68 -15 0
1 -68 56 0
1 -67 -38 0
1 -67 -14 0
1 -67 80 0
1 -67 95 0
1 -66 -55 0
1 -66 -40 0
1 -66 78 0
1 -66 93 0
1 -65 9 0
1 -65 61 0
1 -65 113 0
1 -64 -21 0
1 -64 -4 0
1 -64 15 0
1 -64 36 0
1 -63 -47 0
1 -63 -35 0
1 -63 18 0
1 -63 51 0
1 -62 -35 0
1 -62 -6 0
1 -62 5 0
1 -62 60 0
1 -61 22 0
1 -61 44 0
1 -61 65 0
1 -60 -23 0
1 -60 64 0
1 -60 115 0
1 -59 -35 0
1 -59 1 0
1 -59 105 0
1 -58 -50 0
1 -58 28 0
1 -58 73 0
1 -57 -3 0
1 -57 2 0
1 -57 27 0
1 -57 86 0
1 -56 38 0
1 -56 44 0
1 -56 104 0
1 -56 114 0
1 -55 12 0
1 -55 110 0
1 -54 -52 0
1 -54 16 0
1 -54 107 0
1 -53 -33 0
1 -53 -21 0
1 -53 90 0
1 -52 39 0
1 -51 -34 0
1 -51 11 0
1 -51 114 0
1 -50 28 0
1 -50 70 0
1 -49 -24 0
1 -49 -11 0
1 -49 75 0
1 -49 82 0
1 -48 14 0
1 -48 73 0
1 -48 107 0
1 -47 -22 0
1 -47 -19 0
1 -47 32 0
1 -46 -3 0
1 -46 45 0
1 -46 77 0
1 -46 110 0
1 -45 -11 0
1 -45 5 0
1 -44 18 0
1 -44 25 0
1 -44 50 0
1 -44 53 0
1 -43 -42 0
1 -43 6 0
1 -43 103 0
1 -42 -23 0
1 -42 93 0
1 -41 -16 0
1 -41 35 0
1 -41 47 0
1 -41 60 0
1 -40 -4 0
1 -40 69 0
1 -39 4 0
1 -39 60 0
1 -39 116 0
1 -38 -2 0
1 -38 77 0
1 -37 -33 0
1 -37 -5 0
1 -37 109 0
1 -37 117 0
1 -36 42 0
1 -36 76 0
1 -35 -31 0
1 -34 3 0
1 -34 27 0
1 -34 37 0
1 -33 70 0
1 -32 8 0
1 -32 31 0
1 -32 50 0
1 -31 -17 0
1 -31 24 0
1 -30 45 0
1 -30 113 0
1 -30 121 0
1 -29 119 0
1 -29 122 0
1 -28 -18 0
1 -28 -4 0
1 -28 57 0
1 -28 64 0
1 -27 -5 0
1 -27 88 0
1 -26 -25 0
1 -26 -1 0
1 -26 40 0
1 -25 -20 0
1 -25 85 0
1 -25 118 0
1 -24 52 0
1 -24 106 0
1 -23 -1 0
1 -22 103 0
1 -21 -10 0
1 -21 48 0
1 -20 55 0
1 -20 77 0
1 -19 66 0
1 -18 88 0
1 -17 -8 0
1 -17 25 0
1 -17 89 0
1 -16 27 0
1 -15 20 0
1 -15 35 0
1 -15 109 0
1 -14 -4 0
1 -14 3 0
1 -13 39 0
1 -13 41 0
1 -13 105 0
1 -12 39 0
1 -12 54 0
1 -12 91 0
1 -12 104 0
1 -11 20 0
1 -10 36 0
1 -10 122 0
1 -9 51 0
1 -9 61 0
1 -8 35 0
1 -8 99 0
1 -7 41 0
1 -7 74 0
1 -6 -2 0
1 -6 14 0
1 -5 41 0
1 -3 16 0
1 -1 30 0
1 -1 80 0
1 1 65 0
1 1 99 0
1 1 115 0
1 2 85 0
1 2 100 0
1 2 121 0
1 3 56 0
1 3 89 0
1 4 92 0
1 5 12 0
1 6 68 0
1 7 21 0
1 7 56 0
1 7 59 0
1 8 52 0
1 8 115 0
1 9 104 0
1 10 17 0
1 10 67 0
1 10 83 0
1 11 23 0
1 11 67 0
1 12 37 0
1 12 121 0
1 13 70 0
1 13 124 0
1 14 66 0
1 15 97 0
1 16 40 0
1 16 58 0
1 17 22 0
1 17 80 0
1 18 31 0
1 18 39 0
1 19 74 0
1 19 84 0
1 19 91 0
1 20 28 0
1 21 30 0
1 21 111 0
1 22 68 0
1 22 124 0
1 23 49 0
1 23 63 0
1 24 42 0
1 25 42 0
1 25 72 0
1 26 100 0
1 28 82 0
1 29 76 0
1 29 120 0
1 30 32 0
1 32 49 0
1 32 84 0
1 33 38 0
1 33 87 0
1 34 35 0
1 34 45 0
1 34 110 0
1 36 37 0
1 36 94 0
1 40 59 0
1 41 62 0
1 42 107 0
1 43 111 0
1 44 72 0
1 46 99 0
1 46 118 0
1 47 58 0
1 47 63 0
1 48 83 0
1 48 87 0
1 49 92 0
1 50 98 0
1 51 54 0
1 52 101 0
1 53 60 0
1 54 91 0
1 55 75 0
1 55 76 0
1 55 101 0
1 57 62 0
1 57 117 0
1 59 63 0
1 59 106 0
1 61 108 0
1 61 113 0
1 62 98 0
1 64 123 0
1 65 90 0
1 65 104 0
1 67 71 0
1 67 88 0
1 69 70 0
1 69 101 0
1 71 105 0
1 72 94 0
1 73 90 0
1 73 109 0
1 75 112 0
1 78 83 0
1 78 86 0
1 79 85 0
1 81 84 0
1 81 118 0
1 82 86 0
1 83 95 0
1 85 88 0
1 86 96 0
1 87 98 0
1 87 108 0
1 92 100 0
1 92 116 0
1 94 98 0
1 96 120 0
1 99 117 0
1 101 110 0
1 106 122 0
1 107 115 0
1 109 116 0
1 111 118 0
1 112 117 0
1 112 125 0
1 113 122 0
